n = 36;
lu = [|-1057, 50
      |-1211, -131
      |-1295, -975
      |762, 1272
      |-574, -282
      |-193, 475
      |197, 998
      |-198, 927
      |-978, 1063
      |374, 711
      |119, 301
      |-300, 324
      |-610, 309
      |-791, 809
      |-463, 741
      |-91, 851
      |-541, 718
      |33, 1134
      |-606, 953
      |-1284, 1136
      |282, 729
      |-729, -405
      |227, 414
      |-444, 729
      |-247, 1207
      |-1147, -329
      |781, 1271
      |597, 783
      |-84, 558
      |-950, -335
      |-464, -60
      |-610, 1029
      |-1036, -569
      |-315, 235
      |480, 936
      |-1230, 1263|];
